1430
1   1   0    0    0 0
1   2   170  54   0 1 9 17 25 33 36 28 20 12 4 0
1   3   128  51   0 5 13 21 29 37 24 16 8 0
1   4   170  54   0 2 10 18 26 34 35 27 19 11 3 0
1   5   113  50   0 6 14 22 31 23 15 7 0
2   1   174  30   0 32 40 75 67 59 51 43 0
2   2   140  27   0 62 78 70 54 46 0
2   3   195  58   0 41 49 57 65 73 38 30 39 74 66 58 50 42 0
2   4   170  54   0 44 52 60 68 76 79 71 63 55 47 0
2   5   170  54   0 48 56 64 72 80 77 69 61 53 45 0